(declare-const delta_c Int)
(declare-const delta_x Int)
(declare-const delta_y Int)
(declare-const delta_tmp___0 Int)
(assert (exists
         ((|tmp___0'?1?1| Int) (|c'?2?2| Int) (phi_y?3?3 Int) (havoc?4?4 Int)
            (|y'?5?5| Int) (|x'?6?6| Int) (z?7?7 Int) (c?8?8 Int) (y?9?9 Int)
            (x?10?10 Int) (tmp___0?11?11 Int) (k?12?12 Int))
         (and (<= (- c?8?8) 0) (= (+ z?7?7 (- x?10?10) (- k?12?12) c?8?8) 0)
                (= (+ y?9?9 (- x?10?10)) 0)
                (or (< havoc?4?4 0) (< (- havoc?4?4) 0))
                (or (and (= (+ (- y?9?9) z?7?7 (- k?12?12) c?8?8) 0)
                           (= (+ (- phi_y?3?3) y?9?9 1) 0))
                      (and (or (< (+ (- y?9?9) z?7?7 (- k?12?12) c?8?8) 0)
                                 (< (- (+ (- y?9?9) z?7?7 (- k?12?12) c?8?8)) 0))
                             (= (+ (- phi_y?3?3) y?9?9 -1) 0)))
                (= (+ |tmp___0'?1?1| (- havoc?4?4)) 0)
                (= (+ |c'?2?2| (- c?8?8) -1) 0)
                (= (+ |y'?5?5| (- phi_y?3?3)) 0)
                (= (+ |x'?6?6| (- x?10?10) -1) 0)
                (= (+ delta_x (- (+ |x'?6?6| (- x?10?10)))) 0)
                (= (+ delta_y (- (+ |y'?5?5| (- y?9?9)))) 0)
                (= (+ delta_c (- (+ |c'?2?2| (- c?8?8)))) 0)
                (= (+ delta_tmp___0 (- (+ |tmp___0'?1?1| (- tmp___0?11?11)))) 0))))
(check-sat)